(set-info :smt-lib-version 2.6)
(set-logic QF_FPBV)
(set-info :source |Random FP created by PyMPF|)
(set-info :license |https://www.gnu.org/licenses/gpl-3.0.html|)
(set-info :category random)
(set-info :status unsat)
;; fp.from.sbv(BitVec 64)
(declare-const x (_ BitVec 64))
(assert (bvsle x #b0010010011001001101101101001111011100011100001001111101101111110))
;; x should be 2650850649222478718

(declare-const r Float64)
(assert (= r ((_ to_fp 11 53) RNE x)))
(assert (not (fp.leq r (fp #b0 #b10000111100 #b0010011001001101101101001111011100011100001001111110))))
(check-sat)
(exit)
